(set-logic NIA)

(synth-fun f ((x Int) (y Int)) Int
  ((Start Int) (StartBool Bool))
  ((Start Int (2 (- Start) (- Start Start)))
   (StartBool Bool (true false (not StartBool)))))

(declare-var x Int)
(declare-var y Int)

(constraint (= (f x y) (mod (div x 5) 0)))

(check-synth)
